(set-logic QF_S)
(set-option :strings-exp true)
(set-option :produce-models true)
(declare-fun sigmaStar_0 () String)
(declare-fun sigmaStar_1 () String)
(declare-fun literal_14 () String)
(assert (= literal_14 "\x3c\x61\x20\x74\x69\x74\x6c\x65\x3d\x5c\x22\x61\x6c\x6c\x6f\x77\x63\x68\x6f\x69\x63\x65\x5c\x22\x20\x68\x72\x65\x66\x3d\x5c\x22\x73\x75\x62\x73\x63\x72\x69\x62\x65\x2e\x70\x68\x70\x3f\x69\x64\x3d\x26\x61\x6d\x70\x3b\x66\x6f\x72\x63\x65\x3d\x6e\x6f\x5c\x22\x3e\x65\x76\x65\x72\x79\x6f\x6e\x65\x69\x73\x73\x75\x62\x73\x63\x72\x69\x62\x65\x64\x3c\x2f\x61\x3e"))
(assert (str.in.re literal_14 (re.++ (re.* re.allchar) (re.++ (str.to.re "\x5c\x3c\x53\x43\x52\x49\x50\x54") (re.* re.allchar)))))
(check-sat)
(get-model)
